Version identifier: 12.10.0.0 | 2019-11-26 | 843d4de
CPXPARAM_WorkMem                                 28672
Tried aggregator 2 times.
MIP Presolve modified 21 coefficients.
Aggregator did 30 substitutions.
Reduced MIP has 170 rows, 225 columns, and 825 nonzeros.
Reduced MIP has 225 binaries, 0 generals, 0 SOSs, and 0 indicators.
Presolve time = 0,00 sec. (0,96 ticks)
Found incumbent of value 150,000000 after 0,00 sec. (1,57 ticks)
Probing time = 0,00 sec. (0,28 ticks)
Tried aggregator 1 time.
Detecting symmetries...
MIP Presolve eliminated 40 rows and 0 columns.
MIP Presolve added 80 rows and 0 columns.
Reduced MIP has 210 rows, 225 columns, and 865 nonzeros.
Reduced MIP has 225 binaries, 0 generals, 0 SOSs, and 0 indicators.
Presolve time = 0,00 sec. (0,98 ticks)
Probing time = 0,00 sec. (0,27 ticks)
Clique table members: 540.
MIP emphasis: balance optimality and feasibility.
MIP search method: dynamic search.
Parallel mode: deterministic, using up to 16 threads.
Root relaxation solution time = 0,00 sec. (1,01 ticks)

        Nodes                                         Cuts/
   Node  Left     Objective  IInf  Best Integer    Best Bound    ItCnt     Gap

*     0+    0                          150,0000        0,0000           100,00%
*     0+    0                           64,0000        0,0000           100,00%
*     0+    0                           62,0000        0,0000           100,00%
*     0+    0                           61,0000        0,0000           100,00%
      0     0       30,1000    77       61,0000       30,1000      119   50,66%
      0     0       30,2448    77       61,0000      Cuts: 75      155   50,42%
      0     0       30,5638    77       61,0000     Cuts: 142      205   49,90%
*     0+    0                           60,0000       30,5638            49,06%
      0     0       30,7047    77       60,0000     Cuts: 152      232   48,83%
      0     0       30,7336    77       60,0000     Cuts: 125      250   48,78%
      0     0       30,7386    77       60,0000      Cuts: 74      281   48,77%
*     0+    0                           59,0000       30,7386            47,90%
      0     0       30,8581    77       59,0000      Cuts: 90      321   47,70%
      0     0       30,9318    77       59,0000     Cuts: 122      333   47,57%
      0     0       30,9647    77       59,0000  ZeroHalf: 13      355   47,52%
*     0+    0                           58,0000       30,9647            46,61%
      0     0       31,0438    77       58,0000      Cuts: 98      388   46,48%
      0     0       31,0886    77       58,0000      Cuts: 99      424   46,40%
      0     0       31,1609    77       58,0000      Cuts: 83      462   46,27%
      0     0       31,1971    77       58,0000     Cuts: 104      478   46,21%
      0     0       31,2246    77       58,0000  ZeroHalf: 19      497   46,16%
      0     0       31,2808    77       58,0000      Cuts: 83      530   46,07%
      0     0       31,3058    77       58,0000      Cuts: 43      552   46,02%
      0     0       31,3200    77       58,0000      Cuts: 76      572   46,00%
      0     0       31,3342    77       58,0000  ZeroHalf: 14      583   45,98%
      0     0       31,3434    77       58,0000      Cuts: 41      589   45,96%
      0     0       31,4359    77       58,0000      Cuts: 19      619   45,80%
      0     0       31,5187    77       58,0000      Cuts: 72      660   45,66%
      0     0       31,5578    77       58,0000      Cuts: 41      691   45,59%
*     0+    0                           56,0000       31,5578            43,65%
      0     0       31,5651    77       56,0000      Cuts: 33      730   35,30%
      0     0       31,5982    77       56,0000      Cuts: 44      797   35,30%
      0     2       31,5982   225       56,0000       38,2833      797   31,64%
Elapsed time = 0,27 sec. (141,09 ticks, tree = 0,02 MB, solutions = 8)
*  3910+ 1972                           55,0000       47,7175            13,24%
*  3915  1609      integral     0       54,0000       47,7175    83216   11,63%

Clique cuts applied:  58
Cover cuts applied:  184
Flow cuts applied:  5
Mixed integer rounding cuts applied:  39
Zero-half cuts applied:  33
Gomory fractional cuts applied:  2

Root node processing (before b&c):
  Real time             =    0,26 sec. (140,69 ticks)
Parallel b&c, 16 threads:
  Real time             =    0,42 sec. (220,56 ticks)
  Sync time (average)   =    0,19 sec.
  Wait time (average)   =    0,00 sec.
                          ------------
Total (root+branch&cut) =    0,68 sec. (361,25 ticks)
